Academic license - for non-commercial use only
Optimize a model with 1950 rows, 1800 columns and 138166 nonzeros
Variable types: 0 continuous, 1800 integer (1800 binary)
Coefficient statistics:
  Matrix range     [1e+00, 4e+01]
  Objective range  [1e+00, 4e+01]
  Bounds range     [1e+00, 1e+00]
  RHS range        [1e+00, 7e+01]
Presolve removed 840 rows and 724 columns
Presolve time: 0.48s
Presolved: 1110 rows, 1076 columns, 60361 nonzeros
Variable types: 0 continuous, 1076 integer (1076 binary)

Root relaxation: objective 6.424600e+01, 50 iterations, 0.01 seconds

    Nodes    |    Current Node    |     Objective Bounds      |     Work
 Expl Unexpl |  Obj  Depth IntInf | Incumbent    BestBd   Gap | It/Node Time

     0     0   64.24600    0   25          -   64.24600      -     -    0s
H    0     0                      94.0000000   64.24600  31.7%     -    0s
H    0     0                      79.0000000   64.24600  18.7%     -    0s
H    0     0                      78.0000000   64.24600  17.6%     -    0s
H    0     0                      77.0000000   64.24600  16.6%     -    0s
     0     0   70.00000    0   16   77.00000   70.00000  9.09%     -    0s
     0     0   70.00000    0   24   77.00000   70.00000  9.09%     -    1s
     0     0   70.00000    0   14   77.00000   70.00000  9.09%     -    1s
     0     0   70.16667    0   12   77.00000   70.16667  8.87%     -    1s
     0     0   71.00000    0   20   77.00000   71.00000  7.79%     -    1s
     0     0   73.00000    0   17   77.00000   73.00000  5.19%     -    1s
     0     0   73.00000    0   19   77.00000   73.00000  5.19%     -    1s
     0     0   73.00000    0   25   77.00000   73.00000  5.19%     -    1s
     0     0   74.16667    0   16   77.00000   74.16667  3.68%     -    1s
     0     0   75.00000    0   16   77.00000   75.00000  2.60%     -    1s
     0     0   75.00000    0   23   77.00000   75.00000  2.60%     -    1s
     0     0   76.00000    0   10   77.00000   76.00000  1.30%     -    1s
     0     0   76.00000    0   25   77.00000   76.00000  1.30%     -    1s
     0     0   76.00000    0   34   77.00000   76.00000  1.30%     -    1s
     0     0   76.00000    0   32   77.00000   76.00000  1.30%     -    1s
     0     0     cutoff    0        77.00000   77.00000  0.00%     -    1s

Cutting planes:
  Cover: 1
  Clique: 14
  MIR: 1
  GUB cover: 1

Explored 1 nodes (656 simplex iterations) in 1.30 seconds
Thread count was 8 (of 8 available processors)

Solution count 4: 77 78 79 94 

Optimal solution found (tolerance 1.00e-04)
Best objective 7.700000000000e+01, best bound 7.700000000000e+01, gap 0.0000%

